23
0 0 1 1 2 2 2 0 3 4 0 5 5 0 1 3 6 3 7 7 6 4 2 8 3 9 5 10 6 10 5 8 9 11 11 4 1 2 0 8 3 7 0 1 8 11 6 10 12 13 12 13 14 9 15 14 4 9 10 16 15 11 12 13 4 15 0 2 13 15 6 12 4 10 7 9 17 3 14 16 17 13 18 19 6 12 17 8 20 16 20 14 21 22 15 14 15 18 6 16 